20	5
0	7	3	1	4	2	7	6	5
1	3	17	20	8
2	1	15
3	0
4	1	15
5	3	19	11	20
6	2	12	9
7	1	9
8	1	16
9	0
10	1	11
11	1	18
12	2	17	13
13	0
14	2	15	13
15	2	18	17
16	2	10	19
17	1	19
18	1	21
19	1	21
20	1	21
21	0
0	0	0	0	0	0	0
1	3	0	1	0	5	4
2	2	4	0	5	2	3
3	4	0	0	0	1	4
4	6	2	5	1	4	2
5	9	4	1	2	1	3
6	5	1	2	3	4	5
7	10	0	0	3	3	2
8	6	3	2	2	3	0
9	7	5	5	4	2	2
10	1	5	3	2	1	0
11	4	0	4	2	4	0
12	6	2	4	1	4	4
13	7	1	1	3	1	0
14	5	4	5	3	5	4
15	5	0	0	0	0	2
16	6	1	4	3	0	0
17	9	3	3	0	0	0
18	9	5	2	1	0	5
19	7	0	0	5	2	4
20	8	1	1	2	2	3
21	0	0	0	0	0	0
11	8	11	9	11
